50 
10 
75
4 4 4 4 32 32 31 31 31 31 3 3 3 3 31 31 3 3 3 3 3 3 15 15 15 15 15 3 3 3 3 3 15 15 15 15 15 3 3 3 3 3 3 3 3 3 3 3 3 3 
0 0 0
0 1 18
0 2 38
0 3 56
0 4 76
0 5 94
0 6 114
0 7 132
0 8 152
0 9 170
0 10 51
0 11 69
0 12 89
0 13 107
0 14 127
0 15 145
0 16 165
0 17 183
0 18 203
0 19 221
0 20 103
0 21 121
0 22 141
0 23 159
0 24 179
0 25 197
0 26 217
0 27 235
0 28 255
0 29 273
0 30 155
0 31 173
0 32 193
0 33 211
0 34 231
0 35 249
0 36 269
0 37 287
0 38 307
0 39 325
0 40 206
0 41 224
0 42 244
0 43 262
0 44 282
0 45 300
0 46 320
0 47 338
0 48 358
0 49 376
1 0 18
1 1 0
1 2 20
1 3 38
1 4 58
1 5 76
1 6 96
1 7 114
1 8 134
1 9 152
1 10 69
1 11 51
1 12 71
1 13 89
1 14 109
1 15 127
1 16 147
1 17 165
1 18 185
1 19 203
1 20 121
1 21 103
1 22 123
1 23 141
1 24 161
1 25 179
1 26 199
1 27 217
1 28 237
1 29 255
1 30 173
1 31 155
1 32 175
1 33 193
1 34 213
1 35 231
1 36 251
1 37 269
1 38 289
1 39 307
1 40 224
1 41 206
1 42 226
1 43 244
1 44 264
1 45 282
1 46 302
1 47 320
1 48 340
1 49 358
2 0 38
2 1 20
2 2 0
2 3 18
2 4 38
2 5 56
2 6 76
2 7 94
2 8 114
2 9 132
2 10 89
2 11 71
2 12 51
2 13 69
2 14 89
2 15 107
2 16 127
2 17 145
2 18 165
2 19 183
2 20 141
2 21 123
2 22 103
2 23 121
2 24 141
2 25 159
2 26 179
2 27 197
2 28 217
2 29 235
2 30 193
2 31 175
2 32 155
2 33 173
2 34 193
2 35 211
2 36 231
2 37 249
2 38 269
2 39 287
2 40 244
2 41 226
2 42 206
2 43 224
2 44 244
2 45 262
2 46 282
2 47 300
2 48 320
2 49 338
3 0 56
3 1 38
3 2 18
3 3 0
3 4 20
3 5 38
3 6 58
3 7 76
3 8 96
3 9 114
3 10 107
3 11 89
3 12 69
3 13 51
3 14 71
3 15 89
3 16 109
3 17 127
3 18 147
3 19 165
3 20 159
3 21 141
3 22 121
3 23 103
3 24 123
3 25 141
3 26 161
3 27 179
3 28 199
3 29 217
3 30 211
3 31 193
3 32 173
3 33 155
3 34 175
3 35 193
3 36 213
3 37 231
3 38 251
3 39 269
3 40 262
3 41 244
3 42 224
3 43 206
3 44 226
3 45 244
3 46 264
3 47 282
3 48 302
3 49 320
4 0 76
4 1 58
4 2 38
4 3 20
4 4 0
4 5 18
4 6 38
4 7 56
4 8 76
4 9 94
4 10 127
4 11 109
4 12 89
4 13 71
4 14 51
4 15 69
4 16 89
4 17 107
4 18 127
4 19 145
4 20 179
4 21 161
4 22 141
4 23 123
4 24 103
4 25 121
4 26 141
4 27 159
4 28 179
4 29 197
4 30 231
4 31 213
4 32 193
4 33 175
4 34 155
4 35 173
4 36 193
4 37 211
4 38 231
4 39 249
4 40 282
4 41 264
4 42 244
4 43 226
4 44 206
4 45 224
4 46 244
4 47 262
4 48 282
4 49 300
5 0 94
5 1 76
5 2 56
5 3 38
5 4 18
5 5 0
5 6 20
5 7 38
5 8 58
5 9 76
5 10 145
5 11 127
5 12 107
5 13 89
5 14 69
5 15 51
5 16 71
5 17 89
5 18 109
5 19 127
5 20 197
5 21 179
5 22 159
5 23 141
5 24 121
5 25 103
5 26 123
5 27 141
5 28 161
5 29 179
5 30 249
5 31 231
5 32 211
5 33 193
5 34 173
5 35 155
5 36 175
5 37 193
5 38 213
5 39 231
5 40 300
5 41 282
5 42 262
5 43 244
5 44 224
5 45 206
5 46 226
5 47 244
5 48 264
5 49 282
6 0 114
6 1 96
6 2 76
6 3 58
6 4 38
6 5 20
6 6 0
6 7 18
6 8 38
6 9 56
6 10 165
6 11 147
6 12 127
6 13 109
6 14 89
6 15 71
6 16 51
6 17 69
6 18 89
6 19 107
6 20 217
6 21 199
6 22 179
6 23 161
6 24 141
6 25 123
6 26 103
6 27 121
6 28 141
6 29 159
6 30 269
6 31 251
6 32 231
6 33 213
6 34 193
6 35 175
6 36 155
6 37 173
6 38 193
6 39 211
6 40 320
6 41 302
6 42 282
6 43 264
6 44 244
6 45 226
6 46 206
6 47 224
6 48 244
6 49 262
7 0 132
7 1 114
7 2 94
7 3 76
7 4 56
7 5 38
7 6 18
7 7 0
7 8 20
7 9 38
7 10 183
7 11 165
7 12 145
7 13 127
7 14 107
7 15 89
7 16 69
7 17 51
7 18 71
7 19 89
7 20 235
7 21 217
7 22 197
7 23 179
7 24 159
7 25 141
7 26 121
7 27 103
7 28 123
7 29 141
7 30 287
7 31 269
7 32 249
7 33 231
7 34 211
7 35 193
7 36 173
7 37 155
7 38 175
7 39 193
7 40 338
7 41 320
7 42 300
7 43 282
7 44 262
7 45 244
7 46 224
7 47 206
7 48 226
7 49 244
8 0 152
8 1 134
8 2 114
8 3 96
8 4 76
8 5 58
8 6 38
8 7 20
8 8 0
8 9 18
8 10 203
8 11 185
8 12 165
8 13 147
8 14 127
8 15 109
8 16 89
8 17 71
8 18 51
8 19 69
8 20 255
8 21 237
8 22 217
8 23 199
8 24 179
8 25 161
8 26 141
8 27 123
8 28 103
8 29 121
8 30 307
8 31 289
8 32 269
8 33 251
8 34 231
8 35 213
8 36 193
8 37 175
8 38 155
8 39 173
8 40 358
8 41 340
8 42 320
8 43 302
8 44 282
8 45 264
8 46 244
8 47 226
8 48 206
8 49 224
9 0 170
9 1 152
9 2 132
9 3 114
9 4 94
9 5 76
9 6 56
9 7 38
9 8 18
9 9 0
9 10 221
9 11 203
9 12 183
9 13 165
9 14 145
9 15 127
9 16 107
9 17 89
9 18 69
9 19 51
9 20 273
9 21 255
9 22 235
9 23 217
9 24 197
9 25 179
9 26 159
9 27 141
9 28 121
9 29 103
9 30 325
9 31 307
9 32 287
9 33 269
9 34 249
9 35 231
9 36 211
9 37 193
9 38 173
9 39 155
9 40 376
9 41 358
9 42 338
9 43 320
9 44 300
9 45 282
9 46 262
9 47 244
9 48 224
9 49 206
10 0 51
10 1 69
10 2 89
10 3 107
10 4 127
10 5 145
10 6 165
10 7 183
10 8 203
10 9 221
10 10 0
10 11 18
10 12 38
10 13 56
10 14 76
10 15 94
10 16 114
10 17 132
10 18 152
10 19 170
10 20 52
10 21 70
10 22 90
10 23 108
10 24 128
10 25 146
10 26 166
10 27 184
10 28 204
10 29 222
10 30 104
10 31 122
10 32 142
10 33 160
10 34 180
10 35 198
10 36 218
10 37 236
10 38 256
10 39 274
10 40 155
10 41 173
10 42 193
10 43 211
10 44 231
10 45 249
10 46 269
10 47 287
10 48 307
10 49 325
11 0 69
11 1 51
11 2 71
11 3 89
11 4 109
11 5 127
11 6 147
11 7 165
11 8 185
11 9 203
11 10 18
11 11 0
11 12 20
11 13 38
11 14 58
11 15 76
11 16 96
11 17 114
11 18 134
11 19 152
11 20 70
11 21 52
11 22 72
11 23 90
11 24 110
11 25 128
11 26 148
11 27 166
11 28 186
11 29 204
11 30 122
11 31 104
11 32 124
11 33 142
11 34 162
11 35 180
11 36 200
11 37 218
11 38 238
11 39 256
11 40 173
11 41 155
11 42 175
11 43 193
11 44 213
11 45 231
11 46 251
11 47 269
11 48 289
11 49 307
12 0 89
12 1 71
12 2 51
12 3 69
12 4 89
12 5 107
12 6 127
12 7 145
12 8 165
12 9 183
12 10 38
12 11 20
12 12 0
12 13 18
12 14 38
12 15 56
12 16 76
12 17 94
12 18 114
12 19 132
12 20 90
12 21 72
12 22 52
12 23 70
12 24 90
12 25 108
12 26 128
12 27 146
12 28 166
12 29 184
12 30 142
12 31 124
12 32 104
12 33 122
12 34 142
12 35 160
12 36 180
12 37 198
12 38 218
12 39 236
12 40 193
12 41 175
12 42 155
12 43 173
12 44 193
12 45 211
12 46 231
12 47 249
12 48 269
12 49 287
13 0 107
13 1 89
13 2 69
13 3 51
13 4 71
13 5 89
13 6 109
13 7 127
13 8 147
13 9 165
13 10 56
13 11 38
13 12 18
13 13 0
13 14 20
13 15 38
13 16 58
13 17 76
13 18 96
13 19 114
13 20 108
13 21 90
13 22 70
13 23 52
13 24 72
13 25 90
13 26 110
13 27 128
13 28 148
13 29 166
13 30 160
13 31 142
13 32 122
13 33 104
13 34 124
13 35 142
13 36 162
13 37 180
13 38 200
13 39 218
13 40 211
13 41 193
13 42 173
13 43 155
13 44 175
13 45 193
13 46 213
13 47 231
13 48 251
13 49 269
14 0 127
14 1 109
14 2 89
14 3 71
14 4 51
14 5 69
14 6 89
14 7 107
14 8 127
14 9 145
14 10 76
14 11 58
14 12 38
14 13 20
14 14 0
14 15 18
14 16 38
14 17 56
14 18 76
14 19 94
14 20 128
14 21 110
14 22 90
14 23 72
14 24 52
14 25 70
14 26 90
14 27 108
14 28 128
14 29 146
14 30 180
14 31 162
14 32 142
14 33 124
14 34 104
14 35 122
14 36 142
14 37 160
14 38 180
14 39 198
14 40 231
14 41 213
14 42 193
14 43 175
14 44 155
14 45 173
14 46 193
14 47 211
14 48 231
14 49 249
15 0 145
15 1 127
15 2 107
15 3 89
15 4 69
15 5 51
15 6 71
15 7 89
15 8 109
15 9 127
15 10 94
15 11 76
15 12 56
15 13 38
15 14 18
15 15 0
15 16 20
15 17 38
15 18 58
15 19 76
15 20 146
15 21 128
15 22 108
15 23 90
15 24 70
15 25 52
15 26 72
15 27 90
15 28 110
15 29 128
15 30 198
15 31 180
15 32 160
15 33 142
15 34 122
15 35 104
15 36 124
15 37 142
15 38 162
15 39 180
15 40 249
15 41 231
15 42 211
15 43 193
15 44 173
15 45 155
15 46 175
15 47 193
15 48 213
15 49 231
16 0 165
16 1 147
16 2 127
16 3 109
16 4 89
16 5 71
16 6 51
16 7 69
16 8 89
16 9 107
16 10 114
16 11 96
16 12 76
16 13 58
16 14 38
16 15 20
16 16 0
16 17 18
16 18 38
16 19 56
16 20 166
16 21 148
16 22 128
16 23 110
16 24 90
16 25 72
16 26 52
16 27 70
16 28 90
16 29 108
16 30 218
16 31 200
16 32 180
16 33 162
16 34 142
16 35 124
16 36 104
16 37 122
16 38 142
16 39 160
16 40 269
16 41 251
16 42 231
16 43 213
16 44 193
16 45 175
16 46 155
16 47 173
16 48 193
16 49 211
17 0 183
17 1 165
17 2 145
17 3 127
17 4 107
17 5 89
17 6 69
17 7 51
17 8 71
17 9 89
17 10 132
17 11 114
17 12 94
17 13 76
17 14 56
17 15 38
17 16 18
17 17 0
17 18 20
17 19 38
17 20 184
17 21 166
17 22 146
17 23 128
17 24 108
17 25 90
17 26 70
17 27 52
17 28 72
17 29 90
17 30 236
17 31 218
17 32 198
17 33 180
17 34 160
17 35 142
17 36 122
17 37 104
17 38 124
17 39 142
17 40 287
17 41 269
17 42 249
17 43 231
17 44 211
17 45 193
17 46 173
17 47 155
17 48 175
17 49 193
18 0 203
18 1 185
18 2 165
18 3 147
18 4 127
18 5 109
18 6 89
18 7 71
18 8 51
18 9 69
18 10 152
18 11 134
18 12 114
18 13 96
18 14 76
18 15 58
18 16 38
18 17 20
18 18 0
18 19 18
18 20 204
18 21 186
18 22 166
18 23 148
18 24 128
18 25 110
18 26 90
18 27 72
18 28 52
18 29 70
18 30 256
18 31 238
18 32 218
18 33 200
18 34 180
18 35 162
18 36 142
18 37 124
18 38 104
18 39 122
18 40 307
18 41 289
18 42 269
18 43 251
18 44 231
18 45 213
18 46 193
18 47 175
18 48 155
18 49 173
19 0 221
19 1 203
19 2 183
19 3 165
19 4 145
19 5 127
19 6 107
19 7 89
19 8 69
19 9 51
19 10 170
19 11 152
19 12 132
19 13 114
19 14 94
19 15 76
19 16 56
19 17 38
19 18 18
19 19 0
19 20 222
19 21 204
19 22 184
19 23 166
19 24 146
19 25 128
19 26 108
19 27 90
19 28 70
19 29 52
19 30 274
19 31 256
19 32 236
19 33 218
19 34 198
19 35 180
19 36 160
19 37 142
19 38 122
19 39 104
19 40 325
19 41 307
19 42 287
19 43 269
19 44 249
19 45 231
19 46 211
19 47 193
19 48 173
19 49 155
20 0 103
20 1 121
20 2 141
20 3 159
20 4 179
20 5 197
20 6 217
20 7 235
20 8 255
20 9 273
20 10 52
20 11 70
20 12 90
20 13 108
20 14 128
20 15 146
20 16 166
20 17 184
20 18 204
20 19 222
20 20 0
20 21 18
20 22 38
20 23 56
20 24 76
20 25 94
20 26 114
20 27 132
20 28 152
20 29 170
20 30 52
20 31 70
20 32 90
20 33 108
20 34 128
20 35 146
20 36 166
20 37 184
20 38 204
20 39 222
20 40 103
20 41 121
20 42 141
20 43 159
20 44 179
20 45 197
20 46 217
20 47 235
20 48 255
20 49 273
21 0 121
21 1 103
21 2 123
21 3 141
21 4 161
21 5 179
21 6 199
21 7 217
21 8 237
21 9 255
21 10 70
21 11 52
21 12 72
21 13 90
21 14 110
21 15 128
21 16 148
21 17 166
21 18 186
21 19 204
21 20 18
21 21 0
21 22 20
21 23 38
21 24 58
21 25 76
21 26 96
21 27 114
21 28 134
21 29 152
21 30 70
21 31 52
21 32 72
21 33 90
21 34 110
21 35 128
21 36 148
21 37 166
21 38 186
21 39 204
21 40 121
21 41 103
21 42 123
21 43 141
21 44 161
21 45 179
21 46 199
21 47 217
21 48 237
21 49 255
22 0 141
22 1 123
22 2 103
22 3 121
22 4 141
22 5 159
22 6 179
22 7 197
22 8 217
22 9 235
22 10 90
22 11 72
22 12 52
22 13 70
22 14 90
22 15 108
22 16 128
22 17 146
22 18 166
22 19 184
22 20 38
22 21 20
22 22 0
22 23 18
22 24 38
22 25 56
22 26 76
22 27 94
22 28 114
22 29 132
22 30 90
22 31 72
22 32 52
22 33 70
22 34 90
22 35 108
22 36 128
22 37 146
22 38 166
22 39 184
22 40 141
22 41 123
22 42 103
22 43 121
22 44 141
22 45 159
22 46 179
22 47 197
22 48 217
22 49 235
23 0 159
23 1 141
23 2 121
23 3 103
23 4 123
23 5 141
23 6 161
23 7 179
23 8 199
23 9 217
23 10 108
23 11 90
23 12 70
23 13 52
23 14 72
23 15 90
23 16 110
23 17 128
23 18 148
23 19 166
23 20 56
23 21 38
23 22 18
23 23 0
23 24 20
23 25 38
23 26 58
23 27 76
23 28 96
23 29 114
23 30 108
23 31 90
23 32 70
23 33 52
23 34 72
23 35 90
23 36 110
23 37 128
23 38 148
23 39 166
23 40 159
23 41 141
23 42 121
23 43 103
23 44 123
23 45 141
23 46 161
23 47 179
23 48 199
23 49 217
24 0 179
24 1 161
24 2 141
24 3 123
24 4 103
24 5 121
24 6 141
24 7 159
24 8 179
24 9 197
24 10 128
24 11 110
24 12 90
24 13 72
24 14 52
24 15 70
24 16 90
24 17 108
24 18 128
24 19 146
24 20 76
24 21 58
24 22 38
24 23 20
24 24 0
24 25 18
24 26 38
24 27 56
24 28 76
24 29 94
24 30 128
24 31 110
24 32 90
24 33 72
24 34 52
24 35 70
24 36 90
24 37 108
24 38 128
24 39 146
24 40 179
24 41 161
24 42 141
24 43 123
24 44 103
24 45 121
24 46 141
24 47 159
24 48 179
24 49 197
25 0 197
25 1 179
25 2 159
25 3 141
25 4 121
25 5 103
25 6 123
25 7 141
25 8 161
25 9 179
25 10 146
25 11 128
25 12 108
25 13 90
25 14 70
25 15 52
25 16 72
25 17 90
25 18 110
25 19 128
25 20 94
25 21 76
25 22 56
25 23 38
25 24 18
25 25 0
25 26 20
25 27 38
25 28 58
25 29 76
25 30 146
25 31 128
25 32 108
25 33 90
25 34 70
25 35 52
25 36 72
25 37 90
25 38 110
25 39 128
25 40 197
25 41 179
25 42 159
25 43 141
25 44 121
25 45 103
25 46 123
25 47 141
25 48 161
25 49 179
26 0 217
26 1 199
26 2 179
26 3 161
26 4 141
26 5 123
26 6 103
26 7 121
26 8 141
26 9 159
26 10 166
26 11 148
26 12 128
26 13 110
26 14 90
26 15 72
26 16 52
26 17 70
26 18 90
26 19 108
26 20 114
26 21 96
26 22 76
26 23 58
26 24 38
26 25 20
26 26 0
26 27 18
26 28 38
26 29 56
26 30 166
26 31 148
26 32 128
26 33 110
26 34 90
26 35 72
26 36 52
26 37 70
26 38 90
26 39 108
26 40 217
26 41 199
26 42 179
26 43 161
26 44 141
26 45 123
26 46 103
26 47 121
26 48 141
26 49 159
27 0 235
27 1 217
27 2 197
27 3 179
27 4 159
27 5 141
27 6 121
27 7 103
27 8 123
27 9 141
27 10 184
27 11 166
27 12 146
27 13 128
27 14 108
27 15 90
27 16 70
27 17 52
27 18 72
27 19 90
27 20 132
27 21 114
27 22 94
27 23 76
27 24 56
27 25 38
27 26 18
27 27 0
27 28 20
27 29 38
27 30 184
27 31 166
27 32 146
27 33 128
27 34 108
27 35 90
27 36 70
27 37 52
27 38 72
27 39 90
27 40 235
27 41 217
27 42 197
27 43 179
27 44 159
27 45 141
27 46 121
27 47 103
27 48 123
27 49 141
28 0 255
28 1 237
28 2 217
28 3 199
28 4 179
28 5 161
28 6 141
28 7 123
28 8 103
28 9 121
28 10 204
28 11 186
28 12 166
28 13 148
28 14 128
28 15 110
28 16 90
28 17 72
28 18 52
28 19 70
28 20 152
28 21 134
28 22 114
28 23 96
28 24 76
28 25 58
28 26 38
28 27 20
28 28 0
28 29 18
28 30 204
28 31 186
28 32 166
28 33 148
28 34 128
28 35 110
28 36 90
28 37 72
28 38 52
28 39 70
28 40 255
28 41 237
28 42 217
28 43 199
28 44 179
28 45 161
28 46 141
28 47 123
28 48 103
28 49 121
29 0 273
29 1 255
29 2 235
29 3 217
29 4 197
29 5 179
29 6 159
29 7 141
29 8 121
29 9 103
29 10 222
29 11 204
29 12 184
29 13 166
29 14 146
29 15 128
29 16 108
29 17 90
29 18 70
29 19 52
29 20 170
29 21 152
29 22 132
29 23 114
29 24 94
29 25 76
29 26 56
29 27 38
29 28 18
29 29 0
29 30 222
29 31 204
29 32 184
29 33 166
29 34 146
29 35 128
29 36 108
29 37 90
29 38 70
29 39 52
29 40 273
29 41 255
29 42 235
29 43 217
29 44 197
29 45 179
29 46 159
29 47 141
29 48 121
29 49 103
30 0 155
30 1 173
30 2 193
30 3 211
30 4 231
30 5 249
30 6 269
30 7 287
30 8 307
30 9 325
30 10 104
30 11 122
30 12 142
30 13 160
30 14 180
30 15 198
30 16 218
30 17 236
30 18 256
30 19 274
30 20 52
30 21 70
30 22 90
30 23 108
30 24 128
30 25 146
30 26 166
30 27 184
30 28 204
30 29 222
30 30 0
30 31 18
30 32 38
30 33 56
30 34 76
30 35 94
30 36 114
30 37 132
30 38 152
30 39 170
30 40 51
30 41 69
30 42 89
30 43 107
30 44 127
30 45 145
30 46 165
30 47 183
30 48 203
30 49 221
31 0 173
31 1 155
31 2 175
31 3 193
31 4 213
31 5 231
31 6 251
31 7 269
31 8 289
31 9 307
31 10 122
31 11 104
31 12 124
31 13 142
31 14 162
31 15 180
31 16 200
31 17 218
31 18 238
31 19 256
31 20 70
31 21 52
31 22 72
31 23 90
31 24 110
31 25 128
31 26 148
31 27 166
31 28 186
31 29 204
31 30 18
31 31 0
31 32 20
31 33 38
31 34 58
31 35 76
31 36 96
31 37 114
31 38 134
31 39 152
31 40 69
31 41 51
31 42 71
31 43 89
31 44 109
31 45 127
31 46 147
31 47 165
31 48 185
31 49 203
32 0 193
32 1 175
32 2 155
32 3 173
32 4 193
32 5 211
32 6 231
32 7 249
32 8 269
32 9 287
32 10 142
32 11 124
32 12 104
32 13 122
32 14 142
32 15 160
32 16 180
32 17 198
32 18 218
32 19 236
32 20 90
32 21 72
32 22 52
32 23 70
32 24 90
32 25 108
32 26 128
32 27 146
32 28 166
32 29 184
32 30 38
32 31 20
32 32 0
32 33 18
32 34 38
32 35 56
32 36 76
32 37 94
32 38 114
32 39 132
32 40 89
32 41 71
32 42 51
32 43 69
32 44 89
32 45 107
32 46 127
32 47 145
32 48 165
32 49 183
33 0 211
33 1 193
33 2 173
33 3 155
33 4 175
33 5 193
33 6 213
33 7 231
33 8 251
33 9 269
33 10 160
33 11 142
33 12 122
33 13 104
33 14 124
33 15 142
33 16 162
33 17 180
33 18 200
33 19 218
33 20 108
33 21 90
33 22 70
33 23 52
33 24 72
33 25 90
33 26 110
33 27 128
33 28 148
33 29 166
33 30 56
33 31 38
33 32 18
33 33 0
33 34 20
33 35 38
33 36 58
33 37 76
33 38 96
33 39 114
33 40 107
33 41 89
33 42 69
33 43 51
33 44 71
33 45 89
33 46 109
33 47 127
33 48 147
33 49 165
34 0 231
34 1 213
34 2 193
34 3 175
34 4 155
34 5 173
34 6 193
34 7 211
34 8 231
34 9 249
34 10 180
34 11 162
34 12 142
34 13 124
34 14 104
34 15 122
34 16 142
34 17 160
34 18 180
34 19 198
34 20 128
34 21 110
34 22 90
34 23 72
34 24 52
34 25 70
34 26 90
34 27 108
34 28 128
34 29 146
34 30 76
34 31 58
34 32 38
34 33 20
34 34 0
34 35 18
34 36 38
34 37 56
34 38 76
34 39 94
34 40 127
34 41 109
34 42 89
34 43 71
34 44 51
34 45 69
34 46 89
34 47 107
34 48 127
34 49 145
35 0 249
35 1 231
35 2 211
35 3 193
35 4 173
35 5 155
35 6 175
35 7 193
35 8 213
35 9 231
35 10 198
35 11 180
35 12 160
35 13 142
35 14 122
35 15 104
35 16 124
35 17 142
35 18 162
35 19 180
35 20 146
35 21 128
35 22 108
35 23 90
35 24 70
35 25 52
35 26 72
35 27 90
35 28 110
35 29 128
35 30 94
35 31 76
35 32 56
35 33 38
35 34 18
35 35 0
35 36 20
35 37 38
35 38 58
35 39 76
35 40 145
35 41 127
35 42 107
35 43 89
35 44 69
35 45 51
35 46 71
35 47 89
35 48 109
35 49 127
36 0 269
36 1 251
36 2 231
36 3 213
36 4 193
36 5 175
36 6 155
36 7 173
36 8 193
36 9 211
36 10 218
36 11 200
36 12 180
36 13 162
36 14 142
36 15 124
36 16 104
36 17 122
36 18 142
36 19 160
36 20 166
36 21 148
36 22 128
36 23 110
36 24 90
36 25 72
36 26 52
36 27 70
36 28 90
36 29 108
36 30 114
36 31 96
36 32 76
36 33 58
36 34 38
36 35 20
36 36 0
36 37 18
36 38 38
36 39 56
36 40 165
36 41 147
36 42 127
36 43 109
36 44 89
36 45 71
36 46 51
36 47 69
36 48 89
36 49 107
37 0 287
37 1 269
37 2 249
37 3 231
37 4 211
37 5 193
37 6 173
37 7 155
37 8 175
37 9 193
37 10 236
37 11 218
37 12 198
37 13 180
37 14 160
37 15 142
37 16 122
37 17 104
37 18 124
37 19 142
37 20 184
37 21 166
37 22 146
37 23 128
37 24 108
37 25 90
37 26 70
37 27 52
37 28 72
37 29 90
37 30 132
37 31 114
37 32 94
37 33 76
37 34 56
37 35 38
37 36 18
37 37 0
37 38 20
37 39 38
37 40 183
37 41 165
37 42 145
37 43 127
37 44 107
37 45 89
37 46 69
37 47 51
37 48 71
37 49 89
38 0 307
38 1 289
38 2 269
38 3 251
38 4 231
38 5 213
38 6 193
38 7 175
38 8 155
38 9 173
38 10 256
38 11 238
38 12 218
38 13 200
38 14 180
38 15 162
38 16 142
38 17 124
38 18 104
38 19 122
38 20 204
38 21 186
38 22 166
38 23 148
38 24 128
38 25 110
38 26 90
38 27 72
38 28 52
38 29 70
38 30 152
38 31 134
38 32 114
38 33 96
38 34 76
38 35 58
38 36 38
38 37 20
38 38 0
38 39 18
38 40 203
38 41 185
38 42 165
38 43 147
38 44 127
38 45 109
38 46 89
38 47 71
38 48 51
38 49 69
39 0 325
39 1 307
39 2 287
39 3 269
39 4 249
39 5 231
39 6 211
39 7 193
39 8 173
39 9 155
39 10 274
39 11 256
39 12 236
39 13 218
39 14 198
39 15 180
39 16 160
39 17 142
39 18 122
39 19 104
39 20 222
39 21 204
39 22 184
39 23 166
39 24 146
39 25 128
39 26 108
39 27 90
39 28 70
39 29 52
39 30 170
39 31 152
39 32 132
39 33 114
39 34 94
39 35 76
39 36 56
39 37 38
39 38 18
39 39 0
39 40 221
39 41 203
39 42 183
39 43 165
39 44 145
39 45 127
39 46 107
39 47 89
39 48 69
39 49 51
40 0 206
40 1 224
40 2 244
40 3 262
40 4 282
40 5 300
40 6 320
40 7 338
40 8 358
40 9 376
40 10 155
40 11 173
40 12 193
40 13 211
40 14 231
40 15 249
40 16 269
40 17 287
40 18 307
40 19 325
40 20 103
40 21 121
40 22 141
40 23 159
40 24 179
40 25 197
40 26 217
40 27 235
40 28 255
40 29 273
40 30 51
40 31 69
40 32 89
40 33 107
40 34 127
40 35 145
40 36 165
40 37 183
40 38 203
40 39 221
40 40 0
40 41 18
40 42 38
40 43 56
40 44 76
40 45 94
40 46 114
40 47 132
40 48 152
40 49 170
41 0 224
41 1 206
41 2 226
41 3 244
41 4 264
41 5 282
41 6 302
41 7 320
41 8 340
41 9 358
41 10 173
41 11 155
41 12 175
41 13 193
41 14 213
41 15 231
41 16 251
41 17 269
41 18 289
41 19 307
41 20 121
41 21 103
41 22 123
41 23 141
41 24 161
41 25 179
41 26 199
41 27 217
41 28 237
41 29 255
41 30 69
41 31 51
41 32 71
41 33 89
41 34 109
41 35 127
41 36 147
41 37 165
41 38 185
41 39 203
41 40 18
41 41 0
41 42 20
41 43 38
41 44 58
41 45 76
41 46 96
41 47 114
41 48 134
41 49 152
42 0 244
42 1 226
42 2 206
42 3 224
42 4 244
42 5 262
42 6 282
42 7 300
42 8 320
42 9 338
42 10 193
42 11 175
42 12 155
42 13 173
42 14 193
42 15 211
42 16 231
42 17 249
42 18 269
42 19 287
42 20 141
42 21 123
42 22 103
42 23 121
42 24 141
42 25 159
42 26 179
42 27 197
42 28 217
42 29 235
42 30 89
42 31 71
42 32 51
42 33 69
42 34 89
42 35 107
42 36 127
42 37 145
42 38 165
42 39 183
42 40 38
42 41 20
42 42 0
42 43 18
42 44 38
42 45 56
42 46 76
42 47 94
42 48 114
42 49 132
43 0 262
43 1 244
43 2 224
43 3 206
43 4 226
43 5 244
43 6 264
43 7 282
43 8 302
43 9 320
43 10 211
43 11 193
43 12 173
43 13 155
43 14 175
43 15 193
43 16 213
43 17 231
43 18 251
43 19 269
43 20 159
43 21 141
43 22 121
43 23 103
43 24 123
43 25 141
43 26 161
43 27 179
43 28 199
43 29 217
43 30 107
43 31 89
43 32 69
43 33 51
43 34 71
43 35 89
43 36 109
43 37 127
43 38 147
43 39 165
43 40 56
43 41 38
43 42 18
43 43 0
43 44 20
43 45 38
43 46 58
43 47 76
43 48 96
43 49 114
44 0 282
44 1 264
44 2 244
44 3 226
44 4 206
44 5 224
44 6 244
44 7 262
44 8 282
44 9 300
44 10 231
44 11 213
44 12 193
44 13 175
44 14 155
44 15 173
44 16 193
44 17 211
44 18 231
44 19 249
44 20 179
44 21 161
44 22 141
44 23 123
44 24 103
44 25 121
44 26 141
44 27 159
44 28 179
44 29 197
44 30 127
44 31 109
44 32 89
44 33 71
44 34 51
44 35 69
44 36 89
44 37 107
44 38 127
44 39 145
44 40 76
44 41 58
44 42 38
44 43 20
44 44 0
44 45 18
44 46 38
44 47 56
44 48 76
44 49 94
45 0 300
45 1 282
45 2 262
45 3 244
45 4 224
45 5 206
45 6 226
45 7 244
45 8 264
45 9 282
45 10 249
45 11 231
45 12 211
45 13 193
45 14 173
45 15 155
45 16 175
45 17 193
45 18 213
45 19 231
45 20 197
45 21 179
45 22 159
45 23 141
45 24 121
45 25 103
45 26 123
45 27 141
45 28 161
45 29 179
45 30 145
45 31 127
45 32 107
45 33 89
45 34 69
45 35 51
45 36 71
45 37 89
45 38 109
45 39 127
45 40 94
45 41 76
45 42 56
45 43 38
45 44 18
45 45 0
45 46 20
45 47 38
45 48 58
45 49 76
46 0 320
46 1 302
46 2 282
46 3 264
46 4 244
46 5 226
46 6 206
46 7 224
46 8 244
46 9 262
46 10 269
46 11 251
46 12 231
46 13 213
46 14 193
46 15 175
46 16 155
46 17 173
46 18 193
46 19 211
46 20 217
46 21 199
46 22 179
46 23 161
46 24 141
46 25 123
46 26 103
46 27 121
46 28 141
46 29 159
46 30 165
46 31 147
46 32 127
46 33 109
46 34 89
46 35 71
46 36 51
46 37 69
46 38 89
46 39 107
46 40 114
46 41 96
46 42 76
46 43 58
46 44 38
46 45 20
46 46 0
46 47 18
46 48 38
46 49 56
47 0 338
47 1 320
47 2 300
47 3 282
47 4 262
47 5 244
47 6 224
47 7 206
47 8 226
47 9 244
47 10 287
47 11 269
47 12 249
47 13 231
47 14 211
47 15 193
47 16 173
47 17 155
47 18 175
47 19 193
47 20 235
47 21 217
47 22 197
47 23 179
47 24 159
47 25 141
47 26 121
47 27 103
47 28 123
47 29 141
47 30 183
47 31 165
47 32 145
47 33 127
47 34 107
47 35 89
47 36 69
47 37 51
47 38 71
47 39 89
47 40 132
47 41 114
47 42 94
47 43 76
47 44 56
47 45 38
47 46 18
47 47 0
47 48 20
47 49 38
48 0 358
48 1 340
48 2 320
48 3 302
48 4 282
48 5 264
48 6 244
48 7 226
48 8 206
48 9 224
48 10 307
48 11 289
48 12 269
48 13 251
48 14 231
48 15 213
48 16 193
48 17 175
48 18 155
48 19 173
48 20 255
48 21 237
48 22 217
48 23 199
48 24 179
48 25 161
48 26 141
48 27 123
48 28 103
48 29 121
48 30 203
48 31 185
48 32 165
48 33 147
48 34 127
48 35 109
48 36 89
48 37 71
48 38 51
48 39 69
48 40 152
48 41 134
48 42 114
48 43 96
48 44 76
48 45 58
48 46 38
48 47 20
48 48 0
48 49 18
49 0 376
49 1 358
49 2 338
49 3 320
49 4 300
49 5 282
49 6 262
49 7 244
49 8 224
49 9 206
49 10 325
49 11 307
49 12 287
49 13 269
49 14 249
49 15 231
49 16 211
49 17 193
49 18 173
49 19 155
49 20 273
49 21 255
49 22 235
49 23 217
49 24 197
49 25 179
49 26 159
49 27 141
49 28 121
49 29 103
49 30 221
49 31 203
49 32 183
49 33 165
49 34 145
49 35 127
49 36 107
49 37 89
49 38 69
49 39 51
49 40 170
49 41 152
49 42 132
49 43 114
49 44 94
49 45 76
49 46 56
49 47 38
49 48 18
49 49 0
